c File: instances/14_0.55_1.col
c
c Description: Random graph of size 14 vertices and P(0.5499999999999999) of edges between any two vertices.
p col 14 91
e 1 2
e 1 6
e 1 7
e 1 8
e 1 9
e 1 10
e 1 11
e 1 13
e 2 3
e 2 5
e 2 6
e 2 8
e 2 9
e 2 10
e 2 11
e 2 12
e 3 4
e 3 7
e 3 8
e 3 11
e 3 12
e 3 13
e 3 14
e 4 7
e 4 12
e 4 13
e 5 6
e 5 8
e 5 9
e 5 10
e 5 11
e 6 7
e 6 8
e 6 9
e 6 14
e 7 9
e 7 10
e 7 12
e 7 13
e 8 12
e 8 13
e 9 12
e 9 13
e 9 14
e 10 11
e 10 14
e 11 14
e 12 13
e 12 14